100
6
8
7
0
1
0
1
6
2
1
6
3
3
0
9
1
4
2
4
2
0
3
2
6
8
8
4
0
5
7
2
9
1
3
9
2
2
6
9
1
7
1
5
6
5
0
9
2
8
8
7
2
8
1
4
0
7
7
4
4
1
7
1
1
8
4
4
9
9
9
5
6
3
3
7
7
5
4
8
6
4
0
9
7
8
6
0
6
6
2
5
1
2
6
3
2
8
8
0
6
7
9
2
8
8
1
6
5
2
5
8
1
5
7
4
0
4
0
9
6
7
8
1
4
8
3
2
2
3
0
5
6
8
8
7
5
7
4
4
5
7
1
2
9
0
4
1
5
0
7
5
0
5
5
8
1
4
2
7
5
0
5
7
9
3
6
3
9
8
2
7
8
9
2
9
8
0
2
5
5
6
2
1
4
9
8
4
8
0
8
8
1
1
2
9
5
4
6
6
5
500
